3 3 2
3 2 1 17 2 25 2 1 40 2 30 2 2 50 3 60
3 2 1 30 3 50 2 1 50 2 60 2 2 70 3 60
3 2 1 50 2 60 2 2 70 3 80 2 2 90 3 100

9 7 1000000 5 4 1000000 5 1000000 1000000 
7 11 1000000 5 6 1000000 6 1000000 1000000 
1000000 1000000 1000000 1000000 1000000 1000000 1000000 1000000 1000000 
6 6 1000000 9 7 1000000 4 1000000 1000000 
5 6 1000000 6 9 1000000 4 1000000 1000000 
1000000 1000000 1000000 1000000 1000000 1000000 1000000 1000000 1000000 
5 6 1000000 5 5 1000000 9 1000000 1000000 
1000000 1000000 1000000 1000000 1000000 1000000 1000000 1000000 1000000 
1000000 1000000 1000000 1000000 1000000 1000000 1000000 1000000 1000000 
10 5 6 1000000 6 6 6 5 7 
5 8 6 1000000 5 4 7 6 4 
6 6 11 1000000 6 6 7 5 7 
1000000 1000000 1000000 1000000 1000000 1000000 1000000 1000000 1000000 
6 6 6 1000000 11 5 6 5 6 
6 4 6 1000000 6 8 6 4 6 
7 6 4 1000000 5 5 11 7 6 
5 5 6 1000000 6 5 4 9 6 
7 5 5 1000000 7 5 6 6 9 
1000000 1000000 1000000 1000000 1000000 1000000 1000000 1000000 1000000 
1000000 1000000 1000000 1000000 1000000 1000000 1000000 1000000 1000000 
1000000 1000000 9 7 1000000 5 1000000 6 4 
1000000 1000000 5 8 1000000 7 1000000 4 6 
1000000 1000000 1000000 1000000 1000000 1000000 1000000 1000000 1000000 
1000000 1000000 6 5 1000000 11 1000000 5 5 
1000000 1000000 1000000 1000000 1000000 1000000 1000000 1000000 1000000 
1000000 1000000 7 4 1000000 6 1000000 8 7 
1000000 1000000 5 6 1000000 6 1000000 5 9 
